p tw 130 300
0 1
0 2
0 3
0 4
0 22
0 23
0 77
0 78
0 101
0 106
0 57
0 108
0 105
0 128
0 86
0 126
0 72
0 129
1 2
1 21
1 25
2 13
2 118
3 4
3 19
3 37
5 6
5 7
5 52
5 91
6 7
6 40
6 120
7 20
7 21
7 34
7 35
7 49
7 50
7 56
7 57
7 70
7 71
7 54
7 82
7 47
7 90
7 95
7 96
7 18
7 79
7 114
7 115
7 121
7 122
7 8
7 33
7 73
7 113
8 9
8 10
8 33
9 10
9 25
9 119
10 58
10 59
10 76
10 107
10 109
10 116
10 45
10 123
10 32
10 127
10 44
10 60
10 106
10 121
11 12
11 13
12 13
12 16
12 100
13 27
13 28
13 29
13 30
13 37
13 60
13 23
13 63
13 83
13 84
13 93
13 94
13 90
13 103
13 118
13 108
13 124
13 24
13 82
14 15
14 16
15 16
15 19
15 91
16 31
16 32
16 29
16 33
16 17
16 36
16 68
16 69
16 75
16 76
16 64
16 81
16 46
16 88
16 20
16 89
16 100
16 125
16 126
17 18
17 19
17 36
18 19
18 79
19 37
19 45
19 46
19 61
19 62
19 64
19 65
19 72
19 73
19 86
19 87
19 91
19 27
19 98
19 56
19 66
19 31
19 104
20 21
20 89
21 25
22 23
22 40
22 74
23 63
24 25
24 26
24 82
25 26
25 35
25 41
25 66
25 67
25 77
25 85
25 65
25 92
25 102
25 110
25 111
25 112
25 119
27 28
27 98
28 34
28 52
29 30
29 33
31 32
31 104
32 127
34 35
34 52
35 41
37 60
38 39
38 40
39 40
39 43
39 109
40 47
40 48
40 54
40 55
40 80
40 97
40 104
40 105
40 69
40 113
40 85
40 100
40 75
40 93
40 120
40 83
40 87
40 111
40 114
40 74
40 96
40 123
42 43
42 44
43 44
43 70
43 74
43 79
43 80
43 94
43 99
43 109
43 55
43 117
43 59
43 81
43 53
43 112
44 60
45 46
45 123
46 88
47 48
47 90
48 52
48 62
49 50
50 52
50 116
51 52
51 53
52 53
52 101
52 102
52 116
52 62
52 91
53 112
54 55
54 82
55 117
56 57
56 66
57 108
58 59
59 81
61 62
64 65
64 81
65 92
66 67
68 69
69 113
70 71
70 74
72 73
72 129
73 113
75 76
75 93
76 107
77 78
77 85
79 80
80 97
83 84
83 87
85 100
86 87
86 126
90 103
93 94
94 99
95 96
96 123
101 102
101 106
102 110
104 105
105 128
106 121
108 124
109 116
111 112
111 114
114 115
121 122
125 126
